webassembly/ejemplos_dzn/16/folder16_json_54.dzn
TERM = { '.', 's(5)', 'in_10', 'in_1', 'in_6', 'in_9', 'in_0', 's(4)', 'in_3', 's(1)', 's(7)', 's(2)', 'in_2', 's(8)', 'in_8', 's(6)', 's(0)', 's(3)', 'local_0', 'local_1', 'in_4', 'in_7', 'in_5'};
null = '.';
s = 16;
n = 16;
ndeps = 8;
max_registers_sz = 5;
NR = 2;
registers = [|'local_0', 's(5)', |'local_1', 'in_3'|];
dependencies = [|'i32.load16_u_3', 'i32.store8_7', |'i32.store8_7', 'i32.load_11', |'i32.store8_12', 'i32.store16_13', |'i32.store16_13', 'i32.store8_14', |'i32.store8_14', 'i32.load8_s_15', |'i32.load8_s_4', 'i32.store8_7', |'i32.load8_u_5', 'i32.store8_7', |'i32.load_11', 'i32.store8_12'|];
GET_ENUM = { GET1, GET2, GET3, GET4, GET5, GET6, GET7};
SET_ENUM = { SET1, SET2, SET3, SET4, SET5, SET6, SET7};
TEE_ENUM = { TEE1, TEE2, TEE3, TEE4, TEE5, TEE6, TEE7};
N = 13;
OP = { 'i32.sub_0', 'i32.add_0', 'i32.load16_u_3', 'i32.load8_s_4', 'i32.load8_u_5', 'i32.const_0', 'i32.store8_7', 'i32.add_1', 'i32.load_11', 'i32.store8_12', 'i32.store16_13', 'i32.store8_14', 'i32.load8_s_15' };
in_ops = [2, 2, 1, 1, 1, 0, 2, 2, 1, 2, 2, 2, 1 ];
out_ops = [1, 1, 1, 1, 1, 1, 0, 1, 1, 0, 0, 0, 1 ];
in1 = ['in_0', 's(0)', 's(1)', 's(2)', 's(3)', '.', 's(8)', 'in_3', 's(5)', 's(6)', 'in_6', 'in_8', 'in_10' ];
in2 = ['in_1', 'in_2', '.', '.', '.', '.', 's(4)', 'in_4', '.', 'in_5', 'in_7', 'in_9', '.' ];
in3 = ['.', '.', '.', '.', '.', '.', '.', '.', '.', '.', '.', '.', '.' ];
out1 = ['s(0)', 's(1)', 's(2)', 's(3)', 's(4)', 's(8)', '.', 's(5)', 's(6)', '.', '.', '.', 's(7)' ];
out2 = ['.', '.', '.', '.', '.', '.', '.', '.', '.', '.', '.', '.', '.' ];
out3 = ['.', '.', '.', '.', '.', '.', '.', '.', '.', '.', '.', '.', '.' ];
comm = [false, true, false, false, false, false, false, true, false, false, false, false, false ];
gas = [1, 1, 1, 1, 1, 1, 1, 1, 1, 1, 1, 1, 1 ];
sz = [1, 1, 1, 1, 1, 1, 1, 1, 1, 1, 1, 1, 1 ];
stor = [false, false, false, false, false, false, true, false, false, true, true, true, false ];
lb = [ 1, 1, 1, 1, 1, 1, 1, 1, 1, 1, 1, 1, 1 ];
ub = [ 16, 16, 16, 16, 16, 16, 16, 16, 16, 16, 16, 16, 16 ];
startstack = [ 'in_0', 'in_1', 'in_2', 'in_3', 'in_4', 'in_5', 'in_6', 'in_7', 'in_8', 'in_9', 'in_10', null, null, null, null, null ];
endstack = [ 's(7)', null, null, null, null, null, null, null, null, null, null, null, null, null, null, null ];
