webassembly/ejemplos_results/16/folder16_json_54.txt
value = 16;
fgas = [1, 1, 1, 1, 1, 1, 1, 1, 1, 1, 1, 1, 1, 1, 1, 1];
fsize = [1, 1, 1, 1, 1, 1, 1, 1, 1, 1, 1, 1, 1, 1, 1, 1];
states = 
[|   in_0,   in_1,  in_2, in_3,  in_4, in_5,  in_6,  in_7,  in_8,  in_9, in_10, '.', '.', '.', '.', '.'
 | 's(0)',   in_2,  in_3, in_4,  in_5, in_6,  in_7,  in_8,  in_9, in_10,   '.', '.', '.', '.', '.', '.'
 | 's(1)',   in_3,  in_4, in_5,  in_6, in_7,  in_8,  in_9, in_10,   '.',   '.', '.', '.', '.', '.', '.'
 | 's(2)',   in_3,  in_4, in_5,  in_6, in_7,  in_8,  in_9, in_10,   '.',   '.', '.', '.', '.', '.', '.'
 | 's(3)',   in_3,  in_4, in_5,  in_6, in_7,  in_8,  in_9, in_10,   '.',   '.', '.', '.', '.', '.', '.'
 | 's(3)',   in_3,  in_4, in_5,  in_6, in_7,  in_8,  in_9, in_10,   '.',   '.', '.', '.', '.', '.', '.'
 | 's(4)',   in_3,  in_4, in_5,  in_6, in_7,  in_8,  in_9, in_10,   '.',   '.', '.', '.', '.', '.', '.'
 | 's(8)', 's(4)',  in_3, in_4,  in_5, in_6,  in_7,  in_8,  in_9, in_10,   '.', '.', '.', '.', '.', '.'
 |   in_3,   in_4,  in_5, in_6,  in_7, in_8,  in_9, in_10,   '.',   '.',   '.', '.', '.', '.', '.', '.'
 |   in_3,   in_4,  in_5, in_6,  in_7, in_8,  in_9, in_10,   '.',   '.',   '.', '.', '.', '.', '.', '.'
 | 's(5)',   in_5,  in_6, in_7,  in_8, in_9, in_10,   '.',   '.',   '.',   '.', '.', '.', '.', '.', '.'
 | 's(5)',   in_5,  in_6, in_7,  in_8, in_9, in_10,   '.',   '.',   '.',   '.', '.', '.', '.', '.', '.'
 | 's(6)',   in_5,  in_6, in_7,  in_8, in_9, in_10,   '.',   '.',   '.',   '.', '.', '.', '.', '.', '.'
 |   in_6,   in_7,  in_8, in_9, in_10,  '.',   '.',   '.',   '.',   '.',   '.', '.', '.', '.', '.', '.'
 |   in_8,   in_9, in_10,  '.',   '.',  '.',   '.',   '.',   '.',   '.',   '.', '.', '.', '.', '.', '.'
 |  in_10,    '.',   '.',  '.',   '.',  '.',   '.',   '.',   '.',   '.',   '.', '.', '.', '.', '.', '.'
 | 's(7)',    '.',   '.',  '.',   '.',  '.',   '.',   '.',   '.',   '.',   '.', '.', '.', '.', '.', '.'
 |];
register_states = 
[| local_0, local_1, '.', '.', '.', '.', '.'
 | local_0, local_1, '.', '.', '.', '.', '.'
 | local_0, local_1, '.', '.', '.', '.', '.'
 | local_0, local_1, '.', '.', '.', '.', '.'
 | local_0, local_1, '.', '.', '.', '.', '.'
 |  's(3)', local_1, '.', '.', '.', '.', '.'
 |  's(3)', local_1, '.', '.', '.', '.', '.'
 |  's(3)', local_1, '.', '.', '.', '.', '.'
 |  's(3)', local_1, '.', '.', '.', '.', '.'
 |  's(3)',    in_3, '.', '.', '.', '.', '.'
 |  's(3)',    in_3, '.', '.', '.', '.', '.'
 |  's(5)',    in_3, '.', '.', '.', '.', '.'
 |  's(5)',    in_3, '.', '.', '.', '.', '.'
 |  's(5)',    in_3, '.', '.', '.', '.', '.'
 |  's(5)',    in_3, '.', '.', '.', '.', '.'
 |  's(5)',    in_3, '.', '.', '.', '.', '.'
 |  's(5)',    in_3, '.', '.', '.', '.', '.'
 |];
program = [O('i32.sub_0'), O('i32.add_0'), O('i32.load16_u_3'), O('i32.load8_s_4'), TEE(TEE1), O('i32.load8_u_5'), O('i32.const_0'), O('i32.store8_7'), TEE(TEE2), O('i32.add_1'), TEE(TEE1), O('i32.load_11'), O('i32.store8_12'), O('i32.store16_13'), O('i32.store8_14'), O('i32.load8_s_15')];
% time elapsed: 0.82 s
----------
=====UNKNOWN=====
% time elapsed: 0.99 s
